p edge 461
e 0 445
e 0 446
e 0 453
e 1 259
e 1 318
e 1 377
e 1 379
e 2 75
e 2 208
e 2 212
e 2 348
e 2 360
e 2 384
e 3 10
e 3 55
e 3 75
e 3 76
e 3 341
e 3 407
e 3 426
e 4 5
e 4 115
e 4 122
e 4 162
e 4 223
e 4 356
e 4 424
e 4 438
e 5 36
e 5 50
e 5 104
e 5 122
e 5 123
e 5 300
e 5 356
e 5 358
e 6 29
e 6 52
e 6 54
e 6 56
e 6 82
e 6 389
e 7 23
e 7 67
e 7 106
e 7 110
e 7 330
e 7 402
e 8 65
e 8 87
e 8 237
e 8 410
e 8 439
e 9 85
e 9 292
e 9 306
e 9 425
e 9 433
e 10 407
e 10 425
e 10 426
e 11 53
e 11 287
e 11 288
e 11 400
e 12 69
e 12 106
e 12 132
e 12 335
e 12 359
e 12 431
e 13 14
e 13 15
e 13 21
e 13 40
e 13 42
e 13 59
e 13 61
e 13 72
e 13 96
e 13 109
e 13 118
e 13 127
e 13 158
e 13 284
e 13 342
e 13 346
e 13 355
e 13 415
e 13 434
e 13 435
e 14 61
e 14 109
e 14 139
e 15 158
e 15 417
e 15 435
e 16 44
e 16 45
e 16 111
e 16 138
e 17 66
e 17 80
e 17 81
e 17 116
e 17 211
e 17 212
e 18 102
e 18 144
e 18 154
e 18 160
e 18 353
e 18 383
e 18 440
e 19 144
e 19 223
e 19 353
e 20 51
e 20 86
e 20 161
e 20 163
e 20 362
e 20 391
e 21 22
e 21 216
e 21 297
e 21 435
e 22 58
e 22 96
e 22 297
e 22 395
e 23 106
e 23 132
e 23 133
e 23 135
e 23 208
e 23 328
e 23 330
e 23 387
e 23 432
e 24 28
e 24 33
e 24 34
e 24 98
e 24 99
e 24 138
e 24 205
e 24 221
e 24 278
e 24 352
e 24 422
e 25 26
e 25 27
e 25 35
e 25 101
e 25 104
e 25 210
e 25 358
e 26 104
e 26 358
e 27 35
e 27 83
e 27 112
e 28 34
e 28 79
e 28 422
e 29 33
e 29 52
e 29 56
e 29 205
e 30 154
e 30 158
e 30 383
e 30 396
e 30 417
e 30 418
e 31 46
e 31 153
e 31 159
e 31 336
e 31 383
e 31 415
e 32 121
e 32 126
e 32 143
e 32 145
e 32 164
e 33 52
e 33 129
e 33 138
e 33 205
e 33 403
e 34 36
e 34 79
e 34 278
e 35 112
e 35 211
e 35 358
e 36 79
e 36 101
e 36 104
e 36 123
e 36 163
e 36 278
e 37 39
e 37 40
e 37 276
e 38 289
e 38 298
e 38 299
e 38 310
e 39 40
e 39 276
e 40 42
e 40 96
e 40 276
e 41 73
e 41 138
e 41 346
e 41 347
e 41 397
e 42 61
e 42 434
e 42 436
e 43 64
e 43 91
e 43 138
e 43 343
e 44 45
e 44 111
e 45 111
e 45 138
e 45 220
e 45 271
e 46 153
e 46 159
e 47 74
e 47 130
e 47 145
e 47 164
e 47 420
e 48 146
e 48 216
e 48 279
e 48 280
e 48 392
e 48 394
e 49 86
e 49 161
e 49 424
e 50 123
e 51 123
e 51 163
e 51 391
e 52 306
e 52 389
e 52 403
e 53 103
e 53 337
e 53 400
e 54 55
e 54 81
e 54 212
e 54 384
e 54 389
e 54 404
e 55 75
e 55 315
e 55 341
e 55 384
e 55 389
e 56 82
e 57 124
e 57 131
e 57 293
e 57 409
e 57 433
e 58 296
e 58 297
e 58 395
e 59 71
e 59 72
e 59 118
e 60 177
e 60 301
e 60 302
e 60 351
e 61 434
e 61 436
e 62 63
e 62 237
e 62 410
e 62 439
e 63 237
e 63 410
e 64 138
e 64 343
e 65 87
e 65 237
e 66 112
e 66 116
e 66 211
e 67 68
e 67 69
e 67 100
e 67 110
e 67 290
e 67 304
e 67 386
e 67 430
e 67 441
e 68 69
e 68 359
e 68 402
e 69 131
e 69 136
e 69 291
e 69 335
e 69 359
e 70 153
e 70 206
e 70 311
e 71 72
e 71 345
e 71 361
e 72 87
e 72 92
e 72 284
e 72 345
e 73 346
e 74 94
e 74 95
e 74 420
e 75 76
e 75 208
e 75 384
e 76 125
e 76 133
e 76 208
e 76 406
e 76 407
e 77 204
e 77 329
e 77 390
e 77 432
e 78 135
e 78 360
e 79 83
e 79 101
e 80 81
e 80 99
e 80 116
e 80 405
e 81 82
e 81 98
e 81 212
e 82 98
e 82 205
e 83 101
e 83 210
e 83 422
e 84 138
e 84 175
e 84 338
e 84 427
e 85 292
e 85 293
e 85 433
e 86 140
e 86 161
e 86 163
e 86 278
e 86 352
e 86 424
e 86 438
e 87 92
e 87 237
e 87 284
e 88 97
e 88 100
e 88 243
e 88 286
e 88 386
e 88 430
e 89 109
e 89 138
e 89 139
e 89 350
e 90 138
e 90 239
e 90 343
e 90 354
e 91 138
e 91 239
e 91 343
e 92 237
e 92 345
e 93 117
e 93 138
e 93 344
e 93 421
e 94 95
e 94 144
e 94 145
e 94 420
e 94 440
e 95 420
e 96 276
e 96 281
e 96 296
e 96 395
e 97 110
e 97 243
e 97 330
e 97 386
e 98 99
e 98 205
e 98 221
e 99 221
e 99 405
e 99 422
e 100 137
e 100 138
e 100 222
e 100 286
e 100 430
e 100 441
e 101 104
e 101 210
e 102 154
e 102 157
e 102 383
e 103 241
e 103 287
e 103 337
e 103 414
e 104 358
e 105 236
e 105 333
e 105 340
e 105 349
e 106 132
e 106 402
e 107 120
e 107 121
e 107 126
e 107 130
e 107 143
e 107 164
e 107 207
e 107 215
e 107 420
e 108 138
e 108 219
e 108 237
e 108 342
e 108 343
e 108 344
e 108 345
e 108 423
e 109 139
e 109 346
e 109 350
e 110 330
e 110 386
e 111 138
e 111 166
e 112 116
e 112 211
e 112 422
e 113 138
e 113 146
e 113 216
e 113 280
e 113 295
e 114 120
e 114 141
e 114 143
e 115 356
e 115 424
e 115 437
e 116 405
e 116 422
e 117 344
e 117 421
e 118 342
e 118 361
e 119 346
e 119 347
e 119 397
e 119 421
e 120 122
e 120 141
e 120 143
e 120 207
e 120 209
e 120 427
e 121 164
e 122 162
e 122 209
e 122 217
e 122 300
e 122 427
e 123 163
e 123 356
e 123 391
e 123 437
e 124 136
e 124 137
e 124 399
e 124 409
e 125 131
e 125 132
e 125 292
e 125 425
e 126 143
e 127 308
e 127 355
e 127 415
e 128 160
e 128 307
e 128 314
e 128 385
e 128 440
e 129 138
e 129 403
e 129 408
e 129 433
e 130 164
e 130 420
e 131 132
e 131 136
e 131 292
e 131 293
e 131 335
e 131 388
e 132 133
e 132 388
e 132 431
e 133 208
e 134 169
e 134 201
e 134 325
e 135 208
e 135 360
e 135 432
e 136 137
e 136 291
e 137 138
e 137 222
e 137 290
e 137 291
e 137 305
e 137 399
e 137 409
e 137 433
e 138 139
e 138 166
e 138 174
e 138 175
e 138 207
e 138 216
e 138 219
e 138 220
e 138 236
e 138 238
e 138 239
e 138 241
e 138 244
e 138 275
e 138 280
e 138 281
e 138 285
e 138 286
e 138 287
e 138 288
e 138 301
e 138 303
e 138 309
e 138 332
e 138 338
e 138 343
e 138 344
e 138 346
e 138 350
e 138 351
e 138 352
e 138 354
e 138 357
e 138 397
e 138 414
e 138 421
e 138 423
e 138 428
e 138 433
e 139 165
e 139 332
e 139 436
e 140 294
e 140 352
e 140 428
e 140 438
e 141 142
e 141 145
e 141 209
e 142 144
e 142 145
e 142 209
e 142 217
e 142 223
e 143 145
e 144 145
e 144 223
e 144 353
e 145 164
e 146 216
e 146 394
e 147 148
e 147 149
e 147 185
e 147 197
e 148 149
e 148 171
e 148 197
e 148 325
e 149 155
e 149 185
e 149 325
e 150 171
e 150 196
e 150 198
e 151 155
e 151 183
e 151 189
e 151 266
e 151 270
e 151 325
e 152 269
e 153 159
e 153 206
e 153 284
e 153 311
e 153 336
e 153 393
e 154 157
e 154 353
e 154 396
e 154 418
e 155 180
e 155 185
e 155 189
e 155 195
e 155 270
e 155 325
e 156 181
e 156 182
e 156 262
e 157 383
e 157 396
e 158 308
e 158 355
e 158 417
e 159 336
e 160 383
e 160 385
e 160 440
e 161 362
e 161 424
e 161 437
e 162 217
e 162 223
e 163 278
e 165 276
e 165 281
e 165 332
e 165 436
e 166 173
e 166 238
e 166 271
e 166 348
e 167 172
e 167 220
e 167 271
e 167 272
e 168 170
e 168 171
e 168 188
e 168 192
e 168 325
e 169 178
e 169 188
e 169 192
e 169 199
e 169 201
e 169 325
e 170 178
e 170 188
e 170 199
e 171 179
e 171 180
e 171 186
e 171 195
e 171 196
e 171 198
e 171 199
e 171 200
e 171 325
e 172 176
e 172 220
e 172 272
e 173 240
e 173 283
e 173 348
e 174 220
e 174 235
e 174 303
e 175 301
e 175 302
e 175 427
e 176 220
e 176 235
e 176 272
e 176 273
e 176 334
e 177 238
e 177 300
e 177 302
e 177 351
e 178 199
e 179 180
e 179 186
e 179 187
e 179 191
e 179 194
e 179 203
e 179 263
e 179 267
e 180 195
e 180 266
e 180 267
e 180 270
e 180 325
e 181 182
e 181 262
e 181 442
e 182 262
e 182 442
e 183 189
e 183 190
e 183 325
e 184 225
e 184 229
e 184 231
e 184 232
e 184 455
e 184 460
e 185 195
e 185 197
e 186 187
e 186 199
e 186 201
e 186 202
e 187 193
e 187 201
e 187 263
e 187 264
e 187 265
e 188 192
e 189 190
e 189 268
e 189 325
e 190 325
e 191 194
e 191 203
e 191 267
e 192 325
e 193 201
e 193 264
e 193 325
e 194 203
e 194 263
e 194 267
e 194 325
e 195 196
e 195 197
e 195 198
e 195 200
e 196 197
e 196 198
e 198 200
e 199 201
e 199 202
e 201 325
e 204 218
e 204 328
e 204 329
e 204 331
e 204 348
e 204 349
e 204 360
e 204 390
e 204 429
e 204 432
e 206 282
e 206 311
e 206 314
e 206 336
e 206 440
e 207 215
e 207 309
e 207 338
e 207 427
e 207 440
e 208 360
e 209 217
e 211 212
e 211 300
e 211 358
e 212 300
e 212 348
e 212 384
e 212 404
e 213 218
e 213 236
e 213 242
e 213 285
e 213 349
e 215 420
e 215 440
e 216 294
e 216 297
e 216 353
e 216 392
e 216 428
e 216 435
e 217 223
e 218 242
e 218 244
e 218 331
e 218 349
e 219 343
e 219 423
e 220 235
e 220 271
e 222 290
e 222 304
e 222 441
e 223 294
e 223 353
e 223 438
e 224 231
e 224 233
e 224 460
e 225 455
e 225 460
e 226 227
e 226 228
e 226 230
e 226 231
e 226 455
e 226 456
e 226 460
e 227 234
e 227 455
e 227 460
e 228 230
e 228 456
e 228 457
e 229 231
e 229 232
e 229 458
e 229 459
e 230 457
e 230 460
e 231 233
e 231 456
e 231 457
e 231 459
e 231 460
e 232 458
e 232 460
e 234 455
e 234 460
e 235 273
e 235 303
e 235 334
e 235 349
e 236 285
e 236 288
e 236 333
e 236 349
e 237 309
e 237 343
e 237 345
e 237 354
e 237 410
e 237 439
e 238 240
e 238 300
e 238 351
e 239 343
e 240 283
e 240 300
e 241 287
e 241 414
e 242 244
e 242 285
e 243 286
e 243 326
e 243 327
e 243 330
e 244 285
e 244 286
e 244 327
e 244 331
e 245 261
e 245 316
e 245 317
e 245 369
e 246 247
e 246 249
e 246 411
e 246 443
e 246 444
e 247 248
e 247 449
e 248 251
e 248 413
e 249 250
e 249 444
e 250 255
e 250 322
e 250 372
e 251 319
e 251 450
e 252 317
e 252 323
e 252 380
e 253 254
e 254 324
e 255 256
e 255 372
e 255 373
e 255 382
e 255 411
e 255 412
e 255 444
e 256 370
e 256 372
e 256 373
e 256 382
e 257 320
e 257 321
e 257 363
e 257 364
e 258 323
e 258 380
e 258 448
e 258 454
e 259 319
e 259 371
e 259 379
e 259 450
e 260 320
e 260 370
e 260 374
e 261 367
e 261 368
e 261 369
e 261 448
e 262 442
e 263 265
e 263 325
e 264 265
e 264 325
e 265 325
e 266 270
e 266 325
e 267 325
e 271 272
e 271 274
e 271 348
e 272 274
e 272 334
e 272 348
e 273 334
e 274 348
e 275 281
e 275 332
e 276 281
e 276 436
e 277 325
e 278 352
e 279 280
e 279 281
e 279 296
e 279 392
e 280 281
e 280 295
e 280 394
e 281 296
e 281 332
e 282 298
e 282 440
e 283 300
e 284 312
e 284 415
e 284 439
e 286 327
e 287 288
e 288 333
e 288 400
e 289 299
e 289 310
e 289 312
e 289 439
e 289 440
e 290 291
e 290 304
e 290 305
e 291 305
e 292 293
e 293 433
e 294 353
e 294 428
e 295 394
e 296 297
e 296 395
e 297 392
e 298 299
e 298 310
e 298 311
e 298 393
e 298 440
e 299 440
e 300 302
e 300 348
e 300 358
e 300 427
e 301 302
e 301 351
e 302 427
e 303 349
e 303 357
e 303 414
e 304 441
e 306 313
e 306 425
e 306 426
e 306 433
e 307 314
e 307 383
e 307 385
e 308 355
e 308 383
e 308 415
e 308 419
e 309 354
e 309 439
e 309 440
e 310 312
e 310 393
e 311 393
e 312 393
e 312 439
e 313 315
e 313 341
e 313 389
e 313 426
e 314 336
e 314 383
e 314 440
e 315 341
e 315 389
e 316 318
e 316 377
e 317 366
e 317 367
e 317 380
e 318 319
e 320 322
e 320 370
e 321 323
e 321 454
e 322 374
e 326 327
e 326 328
e 326 330
e 326 331
e 326 398
e 326 429
e 327 331
e 328 329
e 328 330
e 328 387
e 328 429
e 329 387
e 329 390
e 331 398
e 331 429
e 333 337
e 333 340
e 333 400
e 333 401
e 334 348
e 335 388
e 335 431
e 337 339
e 337 401
e 337 414
e 338 427
e 339 340
e 339 401
e 339 414
e 340 349
e 340 401
e 340 414
e 342 344
e 342 345
e 342 346
e 342 361
e 342 421
e 343 354
e 344 421
e 345 361
e 346 347
e 346 350
e 346 421
e 347 397
e 348 349
e 348 360
e 349 414
e 352 428
e 353 418
e 353 435
e 355 419
e 356 437
e 357 414
e 360 432
e 362 391
e 362 437
e 363 364
e 363 370
e 363 378
e 363 412
e 363 413
e 363 448
e 363 450
e 363 454
e 364 454
e 365 366
e 365 367
e 365 375
e 365 448
e 366 367
e 366 375
e 366 380
e 367 448
e 368 369
e 368 448
e 369 377
e 369 448
e 370 374
e 370 378
e 370 382
e 371 376
e 371 377
e 371 379
e 371 448
e 371 450
e 372 373
e 372 374
e 375 380
e 375 381
e 375 448
e 376 377
e 376 379
e 377 379
e 378 382
e 378 412
e 380 381
e 380 448
e 381 448
e 382 412
e 383 385
e 383 396
e 383 415
e 383 416
e 384 404
e 386 430
e 387 432
e 388 431
e 391 437
e 397 421
e 398 429
e 399 409
e 403 433
e 405 422
e 406 407
e 407 425
e 408 433
e 410 439
e 411 412
e 411 413
e 411 443
e 411 444
e 411 445
e 411 446
e 411 447
e 411 449
e 412 413
e 413 449
e 413 450
e 417 418
e 417 435
e 418 435
e 420 440
e 424 437
e 424 438
e 439 440
e 443 444
e 443 445
e 443 447
e 443 451
e 443 452
e 444 446
e 444 451
e 444 453
e 445 446
e 445 447
e 445 451
e 445 452
e 445 453
e 446 453
e 447 452
e 448 450
e 448 454
e 451 453
e 455 460
e 456 457
e 457 460
e 458 459
e 458 460
e 459 460
c k 2
